Zr
1.
        3.2332000732         0.0000000000         0.0000000000
       -1.6166000366         2.8000333989         0.0000000000
        0.0000000000         0.0000000000         5.1465997696
    2
Direct
     0.333333343         0.666666687         0.250000000
     0.666666627         0.333333313         0.750000000
