Zr
1.0
        4.5300002098         0.0000000000         0.0000000000
        0.0000000000         4.5300002098         0.0000000000
        0.0000000000         0.0000000000         4.5300002098
    4
Direct
     0.000000000         0.000000000         0.000000000
     0.000000000         0.500000000         0.500000000
     0.500000000         0.000000000         0.500000000
     0.500000000         0.500000000         0.000000000
